Version identifier: 22.1.0.0 | 2022-03-09 | 1a383f8ce
CPXPARAM_Threads                                 1
CPXPARAM_MIP_Strategy_VariableSelect             3
CPXPARAM_TimeLimit                               594.795072581
Tried aggregator 1 time.
MIP Presolve eliminated 26 rows and 0 columns.
MIP Presolve modified 1 coefficients.
Reduced MIP has 2550 rows, 5680 columns, and 73646 nonzeros.
Reduced MIP has 5680 binaries, 0 generals, 0 SOSs, and 0 indicators.
Presolve time = 0.04 sec. (31.15 ticks)
Probing time = 0.01 sec. (3.95 ticks)
Tried aggregator 1 time.
Detecting symmetries...
Reduced MIP has 2550 rows, 5680 columns, and 73646 nonzeros.
Reduced MIP has 5680 binaries, 0 generals, 0 SOSs, and 0 indicators.
Presolve time = 0.05 sec. (39.69 ticks)
Probing time = 0.01 sec. (3.95 ticks)
Clique table members: 847.
MIP emphasis: balance optimality and feasibility.
MIP search method: dynamic search.
Parallel mode: none, using 1 thread.
Root relaxation solution time = 3.22 sec. (3152.00 ticks)

        Nodes                                         Cuts/
   Node  Left     Objective  IInf  Best Integer    Best Bound    ItCnt     Gap

      0     0        0.0000  1318                      0.0000     8550         
      0     2        0.0000    42                      0.0000     8550         
Elapsed time = 18.09 sec. (18006.84 ticks, tree = 0.01 MB, solutions = 0)
      1     3        0.0000   904                      0.0000    24973         
      2     4        0.0000   314                      0.0000    27568         
      3     5        0.0000   862                      0.0000    37699         
      4     6        0.0000   364                      0.0000    37788         
      5     7        0.0000   434                      0.0000    38256         
      6     8        0.0000   390                      0.0000    38595         
      7     9        0.0000   328                      0.0000    41283         
      8    10        0.0000   295                      0.0000    44250         
      9    11        0.0000   247                      0.0000    46178         
     11    13        0.0000   332                      0.0000    47309         
Elapsed time = 35.01 sec. (34311.35 ticks, tree = 0.17 MB, solutions = 0)
     13    15        0.0000   351                      0.0000    50346         
     16    18        0.0000   794                      0.0000    58829         
     18    20        0.0000   233                      0.0000    60392         
     21    23        0.0000   220                      0.0000    61557         
     22    24        0.0000   266                      0.0000    64459         
     26    28        0.0000   283                      0.0000    66324         
     30    32        0.0000   247                      0.0000    69233         
     34    36        0.0000   215                      0.0000    72386         
     37    39        0.0000   233                      0.0000    76009         
     41    43        0.0000   225                      0.0000    78529         
Elapsed time = 50.53 sec. (49173.83 ticks, tree = 0.76 MB, solutions = 0)
     45    47        0.0000   212                      0.0000    80487         
     49    51        0.0000   226                      0.0000    82458         
     53    55        0.0000   251                      0.0000    83721         
     57    59        0.0000   216                      0.0000    86114         
     61    63        0.0000   221                      0.0000    88345         
     66    68        0.0000   247                      0.0000    89626         
     70    72        0.0000   242                      0.0000    91394         
     74    76        0.0000   212                      0.0000    94327         
     78    80        0.0000   196                      0.0000    96505         
     81    83        0.0000   192                      0.0000    99859         
Elapsed time = 65.73 sec. (63612.04 ticks, tree = 1.66 MB, solutions = 0)
     86    88        0.0000   208                      0.0000   101721         
     90    92        0.0000   175                      0.0000   104342         
     95    97        0.0000   163                      0.0000   106762         
    100   102        0.0000   138                      0.0000   108857         
    104   106        0.0000    94                      0.0000   111388         
    108   110        0.0000   197                      0.0000   113722         
    112   114        0.0000   120                      0.0000   115055         
    114   116        0.0000   159                      0.0000   117915         
    118   120        0.0000   260                      0.0000   120385         
    123   125        0.0000   348                      0.0000   125707         
Elapsed time = 77.34 sec. (74587.34 ticks, tree = 2.57 MB, solutions = 0)
    128   130        0.0000   251                      0.0000   129514         
    133   135        0.0000   266                      0.0000   135188         
    137   139        0.0000   403                      0.0000   140155         
    142   144        0.0000   233                      0.0000   143699         
    145   147        0.0000   313                      0.0000   147940         
    149   151        0.0000   241                      0.0000   149174         
    153   155        0.0000   288                      0.0000   150204         
    157   159        0.0000   359                      0.0000   151480         
    162   164        0.0000   394                      0.0000   152334         
    166   168        0.0000   286                      0.0000   153724         
Elapsed time = 88.34 sec. (84995.89 ticks, tree = 3.54 MB, solutions = 0)
    171   173        0.0000   360                      0.0000   155395         
    175   177        0.0000   419                      0.0000   156896         
    180   181        0.0000   446                      0.0000   158464         
    185   186        0.0000   439                      0.0000   159313         
    190   191        0.0000   421                      0.0000   160707         
    195   196        0.0000   440                      0.0000   162002         
    200   201        0.0000   384                      0.0000   162844         
    205   206        0.0000   394                      0.0000   164075         
    209   210        0.0000   456                      0.0000   165232         
    213   214        0.0000   447                      0.0000   166579         
Elapsed time = 99.10 sec. (95847.24 ticks, tree = 4.54 MB, solutions = 0)
    218   218        0.0000   423                      0.0000   167578         
    222   222        0.0000   424                      0.0000   168896         
    226   225        0.0000   432                      0.0000   170264         
    230   229        0.0000   449                      0.0000   171233         
    234   233        0.0000   442                      0.0000   172072         
    239   238        0.0000   387                      0.0000   172730         
    245   244        0.0000   392                      0.0000   173231         
    250   249        0.0000   384                      0.0000   174082         
    255   254        0.0000   389                      0.0000   174954         
    260   259        0.0000   357                      0.0000   175637         
Elapsed time = 109.47 sec. (106009.82 ticks, tree = 5.57 MB, solutions = 0)
    266   265        0.0000   320                      0.0000   177232         
    272   271        0.0000   316                      0.0000   178149         
    278   277        0.0000   244                      0.0000   179465         
    285   282        0.0000   243                      0.0000   180167         
    291   288        0.0000   230                      0.0000   181070         
    298   295        0.0000   236                      0.0000   182077         
    307   298        0.0000    95                      0.0000   183499         
    310   301        0.0000   354                      0.0000   185673         
    312   303        0.0000   358                      0.0000   189418         
    314   305        0.0000   245                      0.0000   192786         
Elapsed time = 121.34 sec. (117278.81 ticks, tree = 6.57 MB, solutions = 0)
    316   307        0.0000   125                      0.0000   197261         
    319   310        0.0000   112                      0.0000   199688         
    323   314        0.0000   205                      0.0000   201932         
    328   319        0.0000   552                      0.0000   207337         
    331   322        0.0000   439                      0.0000   210009         
    334   325        0.0000   233                      0.0000   211935         
    337   328        0.0000   374                      0.0000   213520         
    341   332        0.0000   505                      0.0000   215521         
    345   336        0.0000   486                      0.0000   217351         
    349   340        0.0000   316                      0.0000   219604         
Elapsed time = 135.18 sec. (130894.56 ticks, tree = 7.37 MB, solutions = 0)
    352   343        0.0000   436                      0.0000   221006         
    356   347        0.0000   360                      0.0000   222392         
    360   351        0.0000   382                      0.0000   223719         
    364   355        0.0000   376                      0.0000   225330         
    368   359        0.0000   418                      0.0000   227152         
    373   364        0.0000   548                      0.0000   228872         
    377   368        0.0000   472                      0.0000   230048         
    380   371        0.0000   463                      0.0000   230650         
    384   375        0.0000   467                      0.0000   231888         
    400   391        0.0000   550                      0.0000   234662         
Elapsed time = 149.71 sec. (145044.33 ticks, tree = 8.50 MB, solutions = 0)
    416   407        0.0000   587                      0.0000   237747         
    430   421        0.0000   626                      0.0000   240847         
    446   437        0.0000   522                      0.0000   245362         
    463   452        0.0000   528                      0.0000   249223         
    479   464    infeasible                            0.0000   254412         
    492   477        0.0000   510                      0.0000   260947         

Performing restart 1

Repeating presolve.
Tried aggregator 1 time.
Reduced MIP has 2550 rows, 5680 columns, and 73646 nonzeros.
Reduced MIP has 5680 binaries, 0 generals, 0 SOSs, and 0 indicators.
Presolve time = 0.04 sec. (30.86 ticks)
Tried aggregator 1 time.
Reduced MIP has 2550 rows, 5680 columns, and 73646 nonzeros.
Reduced MIP has 5680 binaries, 0 generals, 0 SOSs, and 0 indicators.
Presolve time = 0.05 sec. (41.01 ticks)
Represolve time = 0.14 sec. (119.61 ticks)
    494     2        0.0000    42                      0.0000   269517         
    495     3        0.0000   904                      0.0000   285940         
    497     5        0.0000   862                      0.0000   298666         
    503    11        0.0000   247                      0.0000   307145         
Elapsed time = 209.13 sec. (205026.63 ticks, tree = 0.12 MB, solutions = 0)
    510    18        0.0000   794                      0.0000   319796         
    518    26        0.0000   225                      0.0000   325872         
    524    32        0.0000   247                      0.0000   330200         
    536    44        0.0000   221                      0.0000   339603         
    551    59        0.0000   216                      0.0000   347081         
    567    75        0.0000   260                      0.0000   355013         
    583    91        0.0000   192                      0.0000   365244         
    599   107        0.0000    94                      0.0000   372360         
    614   122        0.0000   120                      0.0000   379550         
    629   137        0.0000   142                      0.0000   390798         
Elapsed time = 256.34 sec. (249959.44 ticks, tree = 2.83 MB, solutions = 0)
*   634     1      integral     0        0.0000        0.0000   391365    0.00%

Root node processing (before b&c):
  Real time             =   18.06 sec. (17977.41 ticks)
Sequential b&c:
  Real time             =  239.00 sec. (232673.47 ticks)
                          ------------
Total (root+branch&cut) =  257.06 sec. (250650.87 ticks)
Version identifier: 22.1.0.0 | 2022-03-09 | 1a383f8ce
CPXPARAM_Threads                                 1
CPXPARAM_MIP_Strategy_VariableSelect             3
CPXPARAM_TimeLimit                               337.695618534
Tried aggregator 1 time.
MIP Presolve eliminated 26 rows and 0 columns.
MIP Presolve modified 1 coefficients.
Reduced MIP has 2559 rows, 5700 columns, and 73908 nonzeros.
Reduced MIP has 5700 binaries, 0 generals, 0 SOSs, and 0 indicators.
Presolve time = 0.04 sec. (31.26 ticks)
Probing time = 0.01 sec. (3.96 ticks)
Tried aggregator 1 time.
Detecting symmetries...
Reduced MIP has 2559 rows, 5700 columns, and 73908 nonzeros.
Reduced MIP has 5700 binaries, 0 generals, 0 SOSs, and 0 indicators.
Presolve time = 0.05 sec. (39.81 ticks)
Probing time = 0.00 sec. (3.96 ticks)
Clique table members: 850.
MIP emphasis: balance optimality and feasibility.
MIP search method: dynamic search.
Parallel mode: none, using 1 thread.
Root relaxation solution time = 4.01 sec. (3880.01 ticks)

        Nodes                                         Cuts/
   Node  Left     Objective  IInf  Best Integer    Best Bound    ItCnt     Gap

      0     0        0.0000  1376                      0.0000     9891         
      0     2        0.0000    55                      0.0000     9891         
Elapsed time = 17.66 sec. (17628.55 ticks, tree = 0.01 MB, solutions = 0)
      1     3        0.0000   859                      0.0000    29097         
      3     5        0.0000   141                      0.0000    30766         
      4     6        0.0000    50                      0.0000    31254         
      5     7        0.0000   530                      0.0000    35829         
      7     9        0.0000   274                      0.0000    39275         
      8    10        0.0000   346                      0.0000    40129         
      9    11        0.0000   633                      0.0000    42942         
     10    12        0.0000   301                      0.0000    42981         
     11    13        0.0000   131                      0.0000    46119         
     13    15        0.0000   166                      0.0000    49601         
Elapsed time = 33.32 sec. (32802.76 ticks, tree = 0.15 MB, solutions = 0)
     16    18        0.0000   141                      0.0000    50479         
     19    21        0.0000   162                      0.0000    51840         
     21    23        0.0000   125                      0.0000    53513         
     23    25        0.0000   167                      0.0000    55916         
     25    27        0.0000   169                      0.0000    58299         
     26    28        0.0000   317                      0.0000    62310         
     28    30        0.0000   612                      0.0000    69162         
     32    34        0.0000   242                      0.0000    73843         
     36    38        0.0000   210                      0.0000    76782         
     40    42        0.0000   295                      0.0000    81863         
Elapsed time = 46.98 sec. (45477.82 ticks, tree = 0.70 MB, solutions = 0)
     45    47        0.0000   208                      0.0000    84837         
     50    52        0.0000   286                      0.0000    89756         
     55    57        0.0000   211                      0.0000    93159         
     60    62        0.0000   426                      0.0000    97733         
     65    67        0.0000   228                      0.0000   101307         
     69    71        0.0000   229                      0.0000   105693         
     74    76        0.0000   310                      0.0000   109996         
     79    81        0.0000   232                      0.0000   113933         
     84    86        0.0000   259                      0.0000   116456         
     89    91        0.0000   398                      0.0000   121117         
Elapsed time = 59.46 sec. (56961.97 ticks, tree = 1.77 MB, solutions = 0)
     94    96        0.0000   251                      0.0000   123602         
     98   100        0.0000   252                      0.0000   127807         
    103   105        0.0000   394                      0.0000   133711         
    107   109        0.0000   340                      0.0000   138105         
    111   113        0.0000   331                      0.0000   141903         
    116   118        0.0000   307                      0.0000   145323         
    120   122        0.0000   358                      0.0000   148336         
    125   127        0.0000   282                      0.0000   150297         
    130   132        0.0000   283                      0.0000   152532         
    135   137        0.0000   283                      0.0000   155420         
Elapsed time = 75.27 sec. (71459.95 ticks, tree = 2.81 MB, solutions = 0)
    140   142        0.0000   379                      0.0000   159023         
    146   148        0.0000   340                      0.0000   161196         
    152   154        0.0000   350                      0.0000   163525         
    157   159        0.0000   367                      0.0000   167279         
    161   163        0.0000   333                      0.0000   169348         
    166   168        0.0000   323                      0.0000   171670         
    171   173        0.0000   340                      0.0000   174149         
    176   178        0.0000   326                      0.0000   176568         
    181   183        0.0000   391                      0.0000   180301         
    186   188        0.0000   333                      0.0000   183322         
Elapsed time = 87.19 sec. (82392.60 ticks, tree = 3.94 MB, solutions = 0)
    191   192        0.0000   351                      0.0000   185277         
    196   197        0.0000   349                      0.0000   187688         
    200   201        0.0000   350                      0.0000   190304         
    205   206        0.0000   372                      0.0000   194193         
    210   211        0.0000   355                      0.0000   197051         
    214   215        0.0000   357                      0.0000   200707         
    219   220        0.0000   365                      0.0000   203617         
    224   225        0.0000   350                      0.0000   206346         
    228   229        0.0000   349                      0.0000   209747         
    232   233        0.0000   359                      0.0000   213942         
Elapsed time = 99.19 sec. (93342.22 ticks, tree = 4.91 MB, solutions = 0)
    237   238        0.0000   342                      0.0000   217744         
    241   242        0.0000   375                      0.0000   220983         
    245   246        0.0000   365                      0.0000   224381         
    250   251        0.0000   340                      0.0000   226621         
    254   255        0.0000   341                      0.0000   229903         
    258   259        0.0000   344                      0.0000   232893         
    262   263        0.0000   373                      0.0000   235576         
    267   268        0.0000   368                      0.0000   237387         
    272   273        0.0000   363                      0.0000   239987         
    277   278        0.0000   349                      0.0000   243912         
Elapsed time = 110.55 sec. (103648.13 ticks, tree = 5.94 MB, solutions = 0)
    281   282        0.0000   350                      0.0000   246808         
    285   286        0.0000   359                      0.0000   251069         
    289   290        0.0000   352                      0.0000   254891         
    293   294        0.0000   351                      0.0000   258873         
    297   298        0.0000   352                      0.0000   262996         
    300   301        0.0000   405                      0.0000   265462         
    305   306        0.0000   356                      0.0000   268370         
    309   310        0.0000   376                      0.0000   271969         
    314   315        0.0000   407                      0.0000   276341         
    319   320        0.0000   372                      0.0000   278975         
Elapsed time = 122.26 sec. (114129.89 ticks, tree = 6.88 MB, solutions = 0)
    324   325        0.0000   423                      0.0000   283002         
    328   329        0.0000   519                      0.0000   287457         
    333   334        0.0000   364                      0.0000   290043         
    337   338        0.0000   363                      0.0000   293343         
    342   343        0.0000   477                      0.0000   298621         
    347   348        0.0000   365                      0.0000   301121         
    351   352        0.0000   376                      0.0000   304066         
    356   357        0.0000   443                      0.0000   307752         
    360   361        0.0000   455                      0.0000   310171         
    364   365        0.0000   366                      0.0000   314761         
Elapsed time = 134.80 sec. (125308.45 ticks, tree = 7.87 MB, solutions = 0)
    369   370        0.0000   378                      0.0000   318002         
    373   374        0.0000   381                      0.0000   322838         
    378   379        0.0000   565                      0.0000   326085         
    382   383        0.0000   454                      0.0000   329501         
    387   388        0.0000   419                      0.0000   333746         
    391   392        0.0000   357                      0.0000   336907         
    396   397        0.0000   398                      0.0000   341044         
    401   402        0.0000   359                      0.0000   343243         
    406   407        0.0000   384                      0.0000   347175         
    425   425        0.0000   423                      0.0000   357115         
Elapsed time = 150.00 sec. (139002.71 ticks, tree = 9.19 MB, solutions = 0)
    440   438        0.0000   537                      0.0000   367977         
    459   457        0.0000   533                      0.0000   379219         
    478   475        0.0000   375                      0.0000   392791         
    496   492        0.0000   368                      0.0000   407005         
    515   510        0.0000   367                      0.0000   418553         
    534   529        0.0000   400                      0.0000   431242         
    555   550        0.0000   364                      0.0000   442591         
    577   571        0.0000   303                      0.0000   452705         
    597   591        0.0000   304                      0.0000   465290         
    616   610        0.0000   326                      0.0000   478759         
Elapsed time = 193.85 sec. (178250.10 ticks, tree = 13.30 MB, solutions = 0)
    638   631        0.0000   320                      0.0000   494138         
    660   653        0.0000   201                      0.0000   514336         
    683   676        0.0000   196                      0.0000   531202         
    709   702        0.0000   192                      0.0000   549219         
    737   727        0.0000   163                      0.0000   566980         
    769   752        0.0000   139                      0.0000   586806         
    794   763        0.0000   289                      0.0000   603175         
    812   781        0.0000   298                      0.0000   612290         
    832   801        0.0000   305                      0.0000   621706         
    840   809        0.0000   299                      0.0000   626678         
Elapsed time = 241.53 sec. (219511.98 ticks, tree = 17.71 MB, solutions = 0)
    859   828        0.0000   296                      0.0000   635945         
    878   847        0.0000   323                      0.0000   642681         
    896   865        0.0000   324                      0.0000   652795         
    915   884        0.0000   352                      0.0000   662048         
    934   903        0.0000   352                      0.0000   670498         
    953   922        0.0000   322                      0.0000   680533         
    971   939        0.0000   348                      0.0000   695066         
    988   956        0.0000   353                      0.0000   708685         
   1006   974        0.0000   250                      0.0000   719800         
   1026   994        0.0000   348                      0.0000   737793         
Elapsed time = 284.08 sec. (258657.12 ticks, tree = 21.79 MB, solutions = 0)
   1046  1014        0.0000   320                      0.0000   751069         
   1065  1033        0.0000   227                      0.0000   768208         
   1086  1054        0.0000   237                      0.0000   780215         
   1105  1073        0.0000   234                      0.0000   797476         
   1125  1093        0.0000   225                      0.0000   812974         
   1146  1113        0.0000   318                      0.0000   832923         
   1166  1133        0.0000   248                      0.0000   849802         
   1187  1154        0.0000   229                      0.0000   863354         
   1208  1175        0.0000   196                      0.0000   876812         
   1230  1196        0.0000   237                      0.0000   892377         
Elapsed time = 328.56 sec. (297640.78 ticks, tree = 26.33 MB, solutions = 0)
   1252  1218        0.0000   301                      0.0000   908218         
   1275  1241        0.0000   212                      0.0000   924113         

Root node processing (before b&c):
  Real time             =   17.63 sec. (17598.87 ticks)
Sequential b&c:
  Real time             =  320.07 sec. (288041.01 ticks)
                          ------------
Total (root+branch&cut) =  337.70 sec. (305639.88 ticks)
Primal:	284
Dual:	300
Status:	Feasible
Time:	594.833
Sequence:
	17
	12
	6
	18
	11
	2
	12
	6
	3
	7
	0
	12
	6
	18
	11
	16
	12
	6
	19
	13
	8
	10
	4
	19
	14
	9
	12
	7
	3
	12
	4
	12
	7
	3
	12
	4
	10
	19
	4
	14
	8
	7
	17
	5
	4
	2
	11
	12
	6
	4
	2
	19
	10
	6
	7
	17
	13
	15
	4
	11
	6
	0
	14
	19
	2
	6
	16
	5
	19
	16
	5
	2
	4
	18
	1
	0
	6
	7
	2
	18
	12
	1
	7
	0
	9
	1
	2
	18
	6
	17
	14
	7
	8
	5
	3
	12
	4
	0
	1
	7
	12
	18
	3
	8
	14
	15
	3
	9
	2
	5
	0
	6
	9
	2
	1
	18
	12
	7
	8
	3
	5
	8
	14
	0
	19
	14
	0
	9
	16
	1
	18
	15
	13
	8
	14
	18
	10
	19
	13
	6
	0
	8
	13
	19
	14
	0
	15
	11
	13
	6
	0
	11
	15
	18
	13
	15
	3
	12
	7
	18
	1
	8
	14
	18
	11
	15
	2
	6
	18
	11
	15
	0
	14
	19
	13
	12
	16
	6
	13
	19
	10
	4
	10
	4
	3
	12
	7
	6
	17
	7
	14
	4
	17
	10
	18
	6
	3
	16
	15
	4
	11
	6
	2
	15
	3
	18
	7
	12
	3
	15
	18
	13
	15
	3
	12
	7
	18
	14
	17
	16
	5
	9
	3
	16
	15
	18
	3
	14
	9
	12
	19
	2
	14
	18
	19
	12
	16
	14
	9
	19
	10
	8
	6
	9
	3
	8
	14
	8
	19
	14
	16
	5
	8
	11
	6
	13
	15
	11
	0
	7
	6
	1
	0
	2
	9
	1
	18
	16
	15
	11
	6
	7
	8
	2
	5
	1
	9
	2
	0
	5
	14
	19
	16
	8
